c description: Random 3-CNF over 13 variables and 26 clauses
p cnf 13 26
2 -5 -8 0
2 -8 11 0
1 10 -12 0
1 -2 4 0
-1 -12 13 0
3 5 -11 0
4 8 -13 0
-1 2 5 0
1 -2 12 0
3 7 -12 0
-5 -7 -11 0
-3 -5 -6 0
-4 6 -10 0
-4 -7 9 0
-7 10 -11 0
7 9 -10 0
6 12 13 0
-4 -8 -9 0
-7 -9 -12 0
7 -10 13 0
2 -3 4 0
-7 11 -12 0
6 10 13 0
-5 -8 12 0
-10 12 13 0
-1 -6 10 0